&control
	calculation = 'scf',
	restart_mode = 'from_scratch',
	prefix = 'h2o',
	tprnfor = .true.,
	pseudo_dir = 'pseudo_potentials',
	outdir = 'results/',
/
&system
	ibrav = 1,
	celldm(1) = 20.0,
	nat = 3,
	ntyp = 2,
	ecutwfc = 70.0,
	nbnd = 8
/
&electrons
	diagonalization = 'cg'
	mixing_beta = 0.05,
	conv_thr = 1.0d-13
/
ATOMIC_SPECIES
 H 1.0	H.upf
 O 16.0 O.upf
ATOMIC_POSITIONS {Angstrom}
H	4.632 6.9658725 5
H	5.36789307 6.9658725 5
O	5 5 5
K_POINTS {gamma} 
