&control
	calculation = 'scf',
	restart_mode = 'from_scratch',
	prefix = 'h2o',
	tprnfor = .true.,
	pseudo_dir = '/opt/quantumespresso/pseudo_potentials',
	outdir = '/opt/quantumespresso/results/',
/
&system
	ibrav = 1,
	celldm(1) = 20.0,
	nat = 3,
	ntyp = 2,
	ecutwfc = 70.0,
	nbnd = 8
/
&electrons
	diagonalization = 'cg'
	mixing_beta = 0.05,
	conv_thr = 1.0d-13
/
ATOMIC_SPECIES
 H 1.0	H.upf
 O 16.0 O.upf
ATOMIC_POSITIONS {angstrom}
H	5.75792359 5.58919592 5.
H	4.24207641 5.58919592 5.
O	5 5 5
K_POINTS {gamma} 
