&control
	calculation = 'scf',
	restart_mode = 'from_scratch',
	prefix = 'h2o_cuda',
	tprnfor = .true.,
	pseudo_dir = '/opt/quantumespresso/pseudo_potenzials',
	outdir = '/opt/quantumespresso/results/',
/
&system
	ibrav = 1,
	celldm(1) = 20.0,
	nat = 3,
	ntyp = 2,
	ecutwfc = 100.0,
	nbnd = 4
/
&electrons
	diagonalization = 'cg'
	mixing_beta = 0.005,
	conv_thr = 1.0d-12
/
ATOMIC_SPECIES
 H 1.0	H.upf
 O 16.0 O.upf
ATOMIC_POSITIONS {bohr}
H	0 0 0
H	2.862909818 0 0
O	1.431454909 1.10935019 0
K_POINTS {gamma} 
