&control
	calculation = 'scf',
	restart_mode = 'from_scratch',
	prefix = 'h2o',
	tprnfor = .true.,
	pseudo_dir = '/opt/quantumespresso/pseudo_potentials',
	outdir = '/opt/quantumespresso/results/',
/
&system
	ibrav = 1,
	celldm(1) = 20.0,
	nat = 3,
	ntyp = 2,
	ecutwfc = 70.0,
	nbnd = 8
/
&electrons
	diagonalization = 'cg'
	mixing_beta = 0.05,
	conv_thr = 1.0d-13
/
ATOMIC_SPECIES
 H 1.0	H.upf
 O 16.0 O.upf
ATOMIC_POSITIONS {angstrom}
H	9.2425 9.413 10
H	10.7575 10.587 10
O	10 10 10
K_POINTS {gamma} 
